TCS_Benchmarks/redos_fix/snort4_output_distinct_16_15_12_0.smt2
(set-logic QF_S)
(declare-const x String)
(assert (str.in.re x (re.inter  (re.++ (re.* (re.comp  (str.to.re "\u{26}")) ) (re.* (re.comp  (str.to.re "\u{26}")) ))  (re.++ (re.* (re.comp  (str.to.re "\u{26}")) ) (re.++  (re.++  (re.union  (str.to.re "\u{75}")  (str.to.re "\u{55}")) (re.++  (re.union  (str.to.re "\u{70}")  (str.to.re "\u{50}")) (re.++  (re.union  (str.to.re "\u{64}")  (str.to.re "\u{44}")) (re.++  (re.union  (str.to.re "\u{61}")  (str.to.re "\u{41}")) (re.++  (re.union  (str.to.re "\u{74}")  (str.to.re "\u{54}"))  (re.union  (str.to.re "\u{65}")  (str.to.re "\u{45}"))))))) (re.* (re.comp  (str.to.re "\u{26}")) ))) )))
(check-sat)
(get-model)