TCS_Benchmarks/redos_fix/snort4_output_distinct_16_15_12_0.txt
([^&]*)([^&]*)
([^&]*)([uU][pP][dD][aA][tT][eE])([^&]*)